c read Graph
c width = 140
c time = 392 ms
c width = 13
c time = 565 ms
c width = 12
c time = 667 ms
c width = 11
c time = 806 ms
c width = 10
c time = 840 ms
c width = 10
c time = 4387 ms
s td 142 11 153
b 1 1 2 18
b 2 2 3 18 19
b 3 15 16 33 34
b 4 3 18 19 35
b 5 15 33 34 51
b 6 103 120 121 138
b 7 119 135 136 152
b 8 103 121 138 139
b 9 119 135 151 152
b 10 3 4 5 21
b 11 3 5 20 21 36 52
b 12 5 20 21 36 38 52 54
b 13 5 21 36 38 52 54 70
b 14 5 21 38 52 54 70 86
b 15 52 69 70 86
b 16 5 21 38 54 70 72 86 90 108 126 142
b 17 54 70 72 86 90 108 126 142
b 18 54 70 72 86 88 90 108 126 142
b 19 70 72 86 88 90 108 124 126 142
b 20 70 72 86 88 90 106 108 124 142
b 21 72 88 89 90 106
b 22 90 106 107 108 124
b 23 70 86 88 106 124 140 142
b 24 124 140 141 142
b 25 70 86 88 106 122 124 140
b 26 70 86 88 104 106 122 140
b 27 88 104 105 106 122
b 28 70 86 87 88 104
b 29 86 104 122 139 140
b 30 86 103 104 122 139
b 31 103 104 121 122 139
b 32 106 122 123 124 140
b 33 108 124 125 126 142
b 34 54 70 71 72 88
b 35 5 21 38 54 56 72 90 108 126 142
b 36 5 21 38 39 56 72 90 108 126 142
b 37 5 21 23 39 56 72 90 108 126 142
b 38 5 23 39 56 72 74 90 108 126 142
b 39 5 23 39 56 74 90 92 108 126 142
b 40 5 23 39 56 74 92 108 110 126 142
b 41 5 23 39 56 57 74 92 110 126 142
b 42 5 23 39 41 57 74 92 110 126 142
b 43 5 23 41 57 74 75 92 110 126 142
b 44 5 23 41 57 59 75 92 110 126 142
b 45 5 23 41 59 75 92 93 110 126 142
b 46 5 23 41 59 75 77 93 110 126 142
b 47 59 75 76 77 93
b 48 5 23 41 59 77 93 110 126 128 142 146
b 49 110 126 128 142 146
b 50 110 126 128 142 144 146
b 51 128 144 145 146
b 52 110 126 127 128 144
b 53 126 142 143 144
b 54 5 9 23 25 41 59 77 93 110 128 146
b 55 9 25 41 43 59 77 93 110 128 146
b 56 9 25 27 43 59 77 93 110 128 146
b 57 9 27 43 59 61 77 93 110 128 146
b 58 43 59 60 61 77
b 59 9 27 43 45 61 77 93 110 128 146
b 60 9 13 27 29 45 61 77 93 110 128 146
b 61 9 11 13 27 29 45
b 62 9 10 11 27
b 63 11 12 13 29
b 64 11 27 28 29 45
b 65 13 29 45 61 77 93 95 110 112 128 146
b 66 13 29 45 61 77 95 110 112 128 146
b 67 13 29 45 61 77 79 95 112 128 146
b 68 13 29 45 61 79 95 96 112 128 146
b 69 13 29 45 61 63 79 96 112 128 146
b 70 13 29 45 63 79 80 96 112 128 146
b 71 13 29 45 63 80 96 112 128 130 146
b 72 13 29 45 47 63 80 96 112 130 146
b 73 29 45 46 47 63
b 74 13 29 47 63 64 80 96 112 130 146
b 75 13 29 31 47 64 80 96 112 130 146
b 76 13 31 47 48 64 80 96 112 130 146
b 77 13 29 30 31 47
b 78 112 128 129 130 146
b 79 45 61 62 63 79
b 80 61 77 78 79 95
b 81 77 93 95 110 111 112 128
b 82 77 93 94 95 111
b 83 27 43 44 45 61
b 84 9 25 26 27 43
b 85 25 41 42 43 59
b 86 5 7 9 23 25 41
b 87 5 6 7 23
b 88 7 8 9 25
b 89 7 23 24 25 41
b 90 41 57 58 59 75
b 91 23 39 40 41 57
b 92 92 108 109 110 126
b 93 74 90 91 92 108
b 94 56 72 73 74 90
b 95 5 21 22 23 39
b 96 38 54 55 56 72
b 97 36 52 53 54 70
b 98 20 36 37 38 54
b 99 3 20 35 36 52
b 100 3 19 20 35 36
b 101 66 82 84 98 100 102 114 130 146
b 102 13 31 48 64 80 96 112 114 130 146
b 103 13 31 48 64 80 96 98 114 130 146
b 104 13 31 48 64 80 82 98 114 130 146
b 105 13 31 48 64 66 82 98 114 130 146
b 106 13 31 48 66 82 84 98 102 114 130 146
b 107 66 82 84 98 102 114 130 146
b 108 64 80 81 82 98
b 109 82 84 98 100 102 114 130 146 148
b 110 130 146 147 148
b 111 82 84 98 100 102 114 130 132 148
b 112 82 84 98 100 102 114 116 132 148
b 113 98 114 115 116 132
b 114 82 98 99 100 116
b 115 84 100 102 116 132 148 150
b 116 132 148 149 150
b 117 84 100 102 116 132 134 150
b 118 116 132 133 134 150
b 119 84 100 102 116 118 134 150
b 120 102 118 134 150 151
b 121 102 118 119 134 151
b 122 118 119 134 135 151
b 123 84 100 101 102 118
b 124 100 116 117 118 134
b 125 114 130 131 132 148
b 126 80 96 97 98 114
b 127 96 112 113 114 130
b 128 66 82 83 84 100
b 129 48 64 65 66 82
b 130 13 31 48 66 68 84 102
b 131 13 31 48 50 66 68 84
b 132 50 66 67 68 84
b 133 13 31 32 48 50 66 68
b 134 13 15 31 32 50 68
b 135 13 14 15 31
b 136 15 32 50 51 68
b 137 15 32 33 50 51
b 138 32 48 49 50 66
b 139 68 84 85 102
b 140 136 152 153
b 141 120 137 138
b 142 16 17 34
1 2
2 4
3 142
3 5
4 100
5 137
6 141
6 8
7 140
7 9
8 31
9 122
10 11
11 99
11 12
12 98
12 13
13 97
13 14
14 16
14 15
16 35
16 17
17 18
18 19
18 34
19 33
19 20
20 21
20 22
20 23
23 24
23 25
25 32
25 26
26 29
26 28
26 27
29 30
30 31
35 96
35 36
36 37
37 38
37 95
38 94
38 39
39 93
39 40
40 92
40 41
41 42
42 91
42 43
43 44
44 90
44 45
45 46
46 48
46 47
48 54
48 50
48 49
50 51
50 52
50 53
54 86
54 55
55 85
55 56
56 84
56 57
57 58
57 59
59 83
59 60
60 65
60 61
61 64
61 62
61 63
65 81
65 66
66 67
67 80
67 68
68 69
69 79
69 70
70 71
71 72
71 78
72 74
72 73
74 75
75 77
75 76
76 102
81 82
86 87
86 88
86 89
99 100
101 128
101 109
101 107
102 127
102 103
103 126
103 104
104 108
104 105
105 129
105 106
106 130
106 107
109 110
109 111
111 125
111 112
112 114
112 113
112 115
115 116
115 117
117 118
117 119
119 120
119 123
119 124
120 121
121 122
130 139
130 131
131 132
131 133
133 138
133 134
134 135
134 136
136 137
